226 168521
1 73 72 96 97 98 91 92 100 101 93 99 88 89 87 95 43 42 44 36 37 38 39 40 41 154 153 152 151 155 156 157 158 159 160 161 162 163 164 165 166 167 168 169 170 171 172 173 174 175 176 177 178 179 180 136 135 134 105 79 78 75 74 76 77 80 81 82 83 84 85 86 137 146 144 102 94 90 58 57 55 50 25 26 27 29 30 34 35 31 33 45 46 47 104 106 107 108 109 118 110 117 116 115 114 113 112 111 103 70 71 13 12 11 8 5 6 7 9 10 14 15 66 133 191 192 193 194 195 196 197 198 199 200 201 202 203 204 205 206 207 208 209 219 223 224 225 226 222 221 220 218 217 216 215 214 213 212 211 210 132 125 130 124 123 122 127 120 128 119 126 139 140 138 145 147 149 148 150 141 142 143 181 182 183 184 185 186 187 188 189 190 131 129 121 64 63 62 61 60 59 56 54 53 52 51 65 67 69 68 16 17 18 19 20 21 22 23 24 28 32 48 49 4 3 2 
